c read Graph
c width = 29
c time = 34 ms
c width = 6
c time = 65 ms
c width = 6
c time = 4941 ms
s td 37 7 42
b 1 1 2 8
b 2 2 3 8 9
b 3 5 6 13 14
b 4 3 8 9 15
b 5 5 13 14 21
b 6 22 29 30 37
b 7 28 34 35 41
b 8 22 30 37 38
b 9 28 34 40 41
b 10 3 4 5 11
b 11 3 9 10 15 16
b 12 5 12 13 20 21
b 13 3 10 15 16 22
b 14 5 12 20 21 28
b 15 22 23 30 31 38
b 16 27 28 33 34 40
b 17 22 23 31 38 39
b 18 27 28 33 39 40
b 19 25 31 32 33 39
b 20 17 23 24 25 31
b 21 3 10 16 17 22 23
b 22 3 10 11 17 22 23
b 23 3 5 11 17 22 23
b 24 11 17 18 19 25
b 25 19 25 26 27 33
b 26 5 11 12 19 20 28
b 27 5 11 19 20 27 28
b 28 5 11 17 22 23 31 39
b 29 5 11 17 23 25 31 39
b 30 5 11 17 19 25 31 39
b 31 5 11 19 27 28 33 39
b 32 5 11 19 25 27 33 39
b 33 5 11 19 25 31 33 39
b 34 25 31 33 39
b 35 35 41 42
b 36 29 36 37
b 37 6 7 14
1 2
2 4
3 37
3 5
4 11
5 12
6 36
6 8
7 35
7 9
8 15
9 16
10 23
11 13
12 14
13 21
14 26
15 17
16 18
17 28
18 31
19 34
20 29
21 22
22 23
23 28
24 30
25 32
26 27
27 31
28 29
29 30
30 33
31 32
32 33
33 34
